8 8 1 1 111111
15 2 8 2 2 3 2 8 5 5 7 2 3 3 7 3 2 8 7 3 2 1 7 2 1 3 2 2 1 3 5 3 1 1 1 2 1 1 5 3 1 1 7 1 6 3 2 8 5 2 6 2 8 5 5 1 2 8 7 6 5 1 6 6 
15 2 8 1 4 3 2 4 7 5 1 1 1 7 1 6 6 1 5 4 1 1 4 2 1 4 3 6 2 2 4 5 3 2 4 2 6 4 2 2 5 5 7 1 6 1 1 3 7 2 1 1 7 6 2 8 5 5 2 2 1 1 2 3 
15 1 1 5 1 2 5 1 2 2 2 1 4 4 6 1 2 4 1 7 7 2 2 4 5 6 2 8 1 1 6 1 2 1 1 2 7 2 5 1 7 5 2 8 5 7 7 2 3 7 7 5 1 3 3 1 2 2 
15 2 8 7 4 4 2 8 5 1 5 2 1 1 4 5 2 3 4 6 2 1 5 5 2 3 2 5 2 1 5 7 2 5 2 6 2 2 3 6 6 3 2 5 5 6 2 2 8 2 7 4 2 8 6 4 4 1 2 1 2 2 7 7 4 1 8 5 
15 2 4 4 7 3 2 8 4 2 3 2 4 7 6 6 1 6 2 1 5 3 1 2 1 2 1 4 4 4 1 3 4 2 8 3 4 7 2 2 6 7 2 2 4 5 7 2 1 3 3 2 1 5 4 7 1 2 2 2 3 7 7 6 
15 1 6 1 2 1 2 2 7 1 6 1 2 3 5 6 3 2 2 6 6 4 2 2 7 7 3 2 2 1 4 3 2 8 3 1 6 2 2 4 3 2 2 1 7 4 6 2 1 1 5 5 2 8 7 7 6 2 8 6 1 6 2 8 3 1 7 2 2 6 5 6 
15 1 1 3 1 5 4 2 2 1 3 7 1 6 3 2 2 2 6 6 1 4 3 1 6 5 2 1 7 3 3 2 8 7 4 4 2 8 6 4 4 2 6 3 7 2 1 2 2 2 5 3 7 6 2 8 6 5 6 1 2 5 
15 1 1 6 1 8 5 2 3 6 7 6 2 3 7 6 1 2 2 5 7 5 2 5 5 6 6 1 2 5 2 8 3 1 4 1 2 6 2 1 3 3 4 2 4 6 6 5 2 8 2 6 2 1 1 4 1 4 3 2 8 3 1 2 
0 2 4 8 
0 1 2 
1 1 2 3 5 
1 2 1 13 
1 0 1 6 
1 2 1 13 
1 4 1 7 
1 6 2 12 14 
1 0 1 9 
1 8 1 11 
0 1 13 
1 9 0 
1 7 0 
3 5 10 3 0 
1 7 0 
0 2 18 19 
0 1 20 
0 1 19 
1 15 1 22 
2 17 15 1 22 
1 16 2 21 23 
1 20 2 25 26 
2 18 19 1 24 
1 20 1 24 
2 23 22 1 27 
1 21 1 29 
1 21 1 28 
1 24 0 
1 26 0 
1 25 0 
0 2 33 35 
0 1 32 
1 31 1 34 
1 30 2 36 38 
1 32 1 40 
1 30 1 38 
1 33 2 39 43 
0 1 42 
2 33 35 1 41 
1 36 1 41 
1 34 1 41 
3 39 40 38 0 
1 37 1 44 
1 36 0 
1 42 0 
0 1 46 
1 45 2 47 48 
1 46 1 50 
1 46 2 49 54 
1 48 2 52 53 
1 47 1 51 
1 50 2 55 59 
1 49 1 56 
1 49 1 55 
1 48 1 56 
2 53 51 1 58 
2 52 54 2 57 58 
1 56 0 
2 56 55 0 
1 51 0 
0 2 61 63 
1 60 2 62 64 
1 61 2 66 67 
1 60 1 70 
1 61 1 65 
1 64 1 72 
1 62 1 74 
1 62 1 68 
1 67 1 71 
0 1 71 
1 63 2 72 73 
2 68 69 0 
2 70 65 0 
1 70 0 
1 66 0 
0 1 79 
0 1 77 
1 76 2 78 86 
1 77 1 82 
1 75 1 86 
0 2 81 83 
1 80 1 85 
1 78 1 87 
1 80 1 84 
1 83 0 
1 81 1 87 
2 79 77 2 88 89 
2 82 85 0 
1 86 0 
1 86 0 
0 2 91 93 
1 90 2 94 101 
0 1 95 
1 90 1 97 
1 91 2 97 98 
1 92 1 96 
1 95 1 100 
2 94 93 1 102 
1 94 1 102 
0 1 101 
1 96 1 103 
2 91 99 1 102 
3 101 97 98 1 103 
2 100 102 1 104 
1 103 0 
0 3 106 109 113 
1 105 2 107 108 
1 106 1 112 
1 106 1 112 
1 105 2 111 116 
0 1 116 
1 109 1 115 
2 108 107 1 118 
1 105 1 114 
1 113 1 118 
1 111 0 
2 110 109 1 117 
1 116 1 119 
2 112 114 0 
1 117 0 
